2 20
434 441 
0 60 58 71 76 13 65 1
1 13 10 52 45 92 77 1
2 93 100 70 71 10 69 1
3 83 89 50 44 8 8 1
4 37 46 83 89 13 97 1
5 105 100 60 54 49 11 2
6 21 31 63 58 31 68 1
7 67 70 5 8 83 63 2
8 58 55 14 22 20 3 1
9 15 16 58 63 55 4 2
10 22 14 50 52 88 80 1
11 24 21 38 32 62 67 1
12 72 74 21 17 35 95 2
13 45 38 87 77 35 41 1
14 58 55 88 89 42 74 2
15 1 3 16 25 95 59 1
16 20 23 5 10 42 41 1
17 17 14 9 9 75 4 1
18 7 7 36 30 96 41 1
19 47 44 20 11 69 60 1
